50
0 1 0.56 0.14
0 2 0.26 0.25
0 3 0.78 0.17
0 4 0.52 0.06
0 5 0.52 0.16
0 6 0.62 0.17
0 7 0.67 0.18
0 8 0.35 0.07
0 9 0.53 0.17
0 10 0.47 0.15
0 11 0.53 0.23
0 12 0.46 0.22
0 13 0.65 0.18
0 14 0.27 0.25
0 15 0.61 0.26
0 16 0.54 0.21
0 17 0.67 0.26
0 18 0.46 0.23
0 19 0.46 0.26
0 20 0.5 0.23
0 21 0.68 0.28
0 22 0.4 0.17
0 23 0.45 0.19
0 24 0.58 0.12
0 25 0.64 0.2
0 26 0.51 0.26
0 27 0.64 0.22
0 28 0.6 0.1
0 29 0.54 0.18
0 30 0.6 0.18
0 31 0.48 0.19
0 32 0.36 0.14
0 33 0.6 0.14
0 34 0.43 0.18
0 35 0.5 0.08
0 36 0.6 0.23
0 37 0.54 0.23
0 38 0.75 0.23
0 39 0.6 0.16
0 40 0.58 0.29
0 41 0.61 0.29
0 42 0.64 0.2
0 43 0.63 0.13
0 44 0.25 0.16
0 45 0.59 0.16
0 46 0.45 0.3
0 47 0.34 0.14
0 48 0.58 0.19
0 49 0.62 0.19
1 2 0.72 0.22
1 3 0.44 0.19
1 4 0.44 0.2
1 5 0.43 0.14
1 6 0.58 0.03
1 7 0.69 0.16
1 8 0.66 0.2
1 9 0.5 0.14
1 10 0.67 0.26
1 11 0.46 0.17
1 12 0.42 0.16
1 13 0.34 0.15
1 14 0.59 0.13
1 15 0.66 0.17
1 16 0.72 0.15
1 17 0.56 0.2
1 18 0.75 0.21
1 19 0.51 0.21
1 20 0.52 0.25
1 21 0.5 0.22
1 22 0.71 0.24
1 23 0.48 0.18
1 24 0.72 0.06
1 25 0.38 0.18
1 26 0.62 0.19
1 27 0.54 0.16
1 28 0.2 0.04
1 29 0.54 0.15
1 30 0.44 0.14
1 31 0.74 0.23
1 32 0.44 0.16
1 33 0.46 0.15
1 34 0.61 0.19
1 35 0.52 0.06
1 36 0.64 0.17
1 37 0.54 0.17
1 38 0.66 0.22
1 39 0.42 0.11
1 40 0.48 0.18
1 41 0.5 0.21
1 42 0.4 0.06
1 43 0.62 0.2
1 44 0.52 0.16
1 45 0.58 0.1
1 46 0.48 0.23
1 47 0.3 0.08
1 48 0.8 0.13
1 49 0.62 0.17
2 3 0.6 0.25
2 4 0.58 0.31
2 5 0.56 0.24
2 6 0.62 0.25
2 7 0.56 0.26
2 8 0.6 0.2
2 9 0.42 0.18
2 10 0.21 0.16
2 11 0.62 0.29
2 12 0.57 0.17
2 13 0.74 0.22
2 14 0.38 0.23
2 15 0.56 0.13
2 16 0.59 0.26
2 17 0.78 0.25
2 18 0.7 0.34
2 19 0.32 0.23
2 20 0.66 0.25
2 21 0.42 0.27
2 22 0.6 0.2
2 23 0.54 0.26
2 24 0.45 0.28
2 25 0.61 0.22
2 26 0.64 0.3
2 27 0.45 0.25
2 28 0.52 0.26
2 29 0.67 0.26
2 30 0.44 0.24
2 31 0.61 0.14
2 32 0.52 0.31
2 33 0.34 0.13
2 34 0.55 0.22
2 35 0.62 0.24
2 36 0.6 0.24
2 37 0.78 0.12
2 38 0.6 0.22
2 39 0.72 0.21
2 40 0.4 0.04
2 41 0.58 0.08
2 42 0.48 0.16
2 43 0.45 0.28
2 44 0.51 0.23
2 45 0.36 0.26
2 46 0.71 0.27
2 47 0.6 0.25
2 48 0.5 0.22
2 49 0.5 0.13
3 4 0.42 0.11
3 5 0.66 0.16
3 6 0.69 0.16
3 7 0.28 0.14
3 8 0.63 0.24
3 9 0.45 0.27
3 10 0.5 0.26
3 11 0.74 0.33
3 12 0.6 0.1
3 13 0.69 0.25
3 14 0.75 0.24
3 15 0.74 0.14
3 16 0.72 0.22
3 17 0.64 0.24
3 18 0.58 0.22
3 19 0.7 0.14
3 20 0.81 0.24
3 21 0.36 0.13
3 22 0.69 0.26
3 23 0.73 0.28
3 24 0.46 0.24
3 25 0.6 0.28
3 26 0.64 0.26
3 27 0.34 0.25
3 28 0.64 0.22
3 29 0.68 0.18
3 30 0.46 0.32
3 31 0.56 0.27
3 32 0.62 0.27
3 33 0.6 0.28
3 34 0.54 0.28
3 35 0.32 0.22
3 36 0.52 0.24
3 37 0.57 0.25
3 38 0.43 0.29
3 39 0.6 0.21
3 40 0.58 0.23
3 41 0.48 0.24
3 42 0.76 0.25
3 43 0.36 0.18
3 44 0.58 0.27
3 45 0.61 0.22
3 46 0.46 0.26
3 47 0.71 0.18
3 48 0.58 0.22
3 49 0.44 0.27
4 5 0.61 0.19
4 6 0.46 0.22
4 7 0.48 0.17
4 8 0.35 0.13
4 9 0.26 0.16
4 10 0.58 0.2
4 11 0.48 0.29
4 12 0.53 0.21
4 13 0.61 0.21
4 14 0.58 0.27
4 15 0.7 0.25
4 16 0.58 0.27
4 17 0.64 0.28
4 18 0.6 0.27
4 19 0.58 0.2
4 20 0.44 0.25
4 21 0.34 0.24
4 22 0.44 0.21
4 23 0.48 0.25
4 24 0.48 0.18
4 25 0.46 0.18
4 26 0.22 0.2
4 27 0.37 0.24
4 28 0.64 0.16
4 29 0.63 0.21
4 30 0.67 0.23
4 31 0.52 0.24
4 32 0.32 0.16
4 33 0.48 0.18
4 34 0.67 0.24
4 35 0.46 0.14
4 36 0.24 0.19
4 37 0.57 0.22
4 38 0.64 0.21
4 39 0.4 0.1
4 40 0.52 0.27
4 41 0.58 0.3
4 42 0.48 0.15
4 43 0.18 0.07
4 44 0.68 0.22
4 45 0.56 0.14
4 46 0.46 0.24
4 47 0.5 0.2
4 48 0.69 0.25
4 49 0.39 0.23
5 6 0.53 0.14
5 7 0.55 0.02
5 8 0.68 0.2
5 9 0.55 0.16
5 10 0.54 0.26
5 11 0.67 0.26
5 12 0.18 0.17
5 13 0.5 0.1
5 14 0.62 0.21
5 15 0.48 0.21
5 16 0.54 0.24
5 17 0.56 0.25
5 18 0.59 0.24
5 19 0.52 0.14
5 20 0.43 0.12
5 21 0.74 0.22
5 22 0.57 0.1
5 23 0.5 0.13
5 24 0.5 0.11
5 25 0.65 0.26
5 26 0.5 0.18
5 27 0.6 0.22
5 28 0.56 0.13
5 29 0.11 0.02
5 30 0.67 0.28
5 31 0.49 0.15
5 32 0.49 0.21
5 33 0.51 0.25
5 34 0.53 0.23
5 35 0.47 0.14
5 36 0.43 0.22
5 37 0.44 0.12
5 38 0.42 0.18
5 39 0.46 0.24
5 40 0.68 0.2
5 41 0.72 0.22
5 42 0.67 0.2
5 43 0.44 0.2
5 44 0.45 0.16
5 45 0.66 0.17
5 46 0.68 0.22
5 47 0.3 0.17
5 48 0.49 0.22
5 49 0.35 0.15
6 7 0.53 0.16
6 8 0.75 0.23
6 9 0.72 0.17
6 10 0.64 0.29
6 11 0.54 0.2
6 12 0.48 0.19
6 13 0.62 0.18
6 14 0.48 0.1
6 15 0.7 0.2
6 16 0.66 0.18
6 17 0.66 0.23
6 18 0.7 0.24
6 19 0.6 0.22
6 20 0.58 0.26
6 21 0.57 0.25
6 22 0.68 0.24
6 23 0.35 0.21
6 24 0.7 0.09
6 25 0.47 0.21
6 26 0.24 0.16
6 27 0.73 0.19
6 28 0.74 0.07
6 29 0.64 0.12
6 30 0.69 0.17
6 31 0.67 0.24
6 32 0.5 0.19
6 33 0.64 0.18
6 34 0.24 0.16
6 35 0.58 0.09
6 36 0.67 0.2
6 37 0.83 0.2
6 38 0.59 0.23
6 39 0.74 0.12
6 40 0.46 0.21
6 41 0.6 0.18
6 42 0.67 0.09
6 43 0.64 0.23
6 44 0.42 0.19
6 45 0.5 0.13
6 46 0.48 0.2
6 47 0.6 0.11
6 48 0.56 0.16
6 49 0.48 0.2
7 8 0.4 0.22
7 9 0.22 0.14
7 10 0.53 0.26
7 11 0.66 0.26
7 12 0.57 0.19
7 13 0.62 0.12
7 14 0.54 0.23
7 15 0.8 0.23
7 16 0.61 0.25
7 17 0.74 0.26
7 18 0.67 0.26
7 19 0.48 0.16
7 20 0.68 0.1
7 21 0.59 0.24
7 22 0.69 0.12
7 23 0.73 0.15
7 24 0.43 0.13
7 25 0.32 0.24
7 26 0.4 0.16
7 27 0.33 0.2
7 28 0.52 0.14
7 29 0.53 0.04
7 30 0.56 0.29
7 31 0.53 0.13
7 32 0.57 0.19
7 33 0.45 0.23
7 34 0.55 0.21
7 35 0.17 0.12
7 36 0.47 0.24
7 37 0.72 0.14
7 38 0.71 0.16
7 39 0.54 0.22
7 40 0.66 0.22
7 41 0.69 0.24
7 42 0.69 0.22
7 43 0.5 0.22
7 44 0.62 0.18
7 45 0.42 0.19
7 46 0.5 0.2
7 47 0.69 0.18
7 48 0.38 0.23
7 49 0.29 0.13
8 9 0.18 0.1
8 10 0.44 0.08
8 11 0.62 0.29
8 12 0.5 0.25
8 13 0.42 0.2
8 14 0.5 0.29
8 15 0.78 0.21
8 16 0.74 0.17
8 17 0.52 0.19
8 18 0.68 0.26
8 19 0.43 0.2
8 20 0.32 0.28
8 21 0.48 0.26
8 22 0.53 0.1
8 23 0.69 0.2
8 24 0.54 0.19
8 25 0.72 0.16
8 26 0.57 0.26
8 27 0.29 0.18
8 28 0.66 0.17
8 29 0.62 0.22
8 30 0.73 0.22
8 31 0.74 0.12
8 32 0.51 0.21
8 33 0.7 0.07
8 34 0.66 0.2
8 35 0.57 0.15
8 36 0.55 0.28
8 37 0.42 0.16
8 38 0.64 0.18
8 39 0.75 0.19
8 40 0.76 0.24
8 41 0.73 0.22
8 42 0.58 0.14
8 43 0.53 0.15
8 44 0.52 0.17
8 45 0.5 0.18
8 46 0.49 0.3
8 47 0.5 0.21
8 48 0.61 0.19
8 49 0.54 0.17
9 10 0.36 0.12
9 11 0.44 0.28
9 12 0.52 0.27
9 13 0.6 0.26
9 14 0.32 0.27
9 15 0.64 0.23
9 16 0.57 0.27
9 17 0.52 0.18
9 18 0.5 0.16
9 19 0.47 0.17
9 20 0.5 0.18
9 21 0.37 0.2
9 22 0.64 0.2
9 23 0.51 0.26
9 24 0.6 0.2
9 25 0.54 0.26
9 26 0.48 0.21
9 27 0.11 0.08
9 28 0.48 0.18
9 29 0.44 0.18
9 30 0.57 0.23
9 31 0.61 0.22
9 32 0.46 0.17
9 33 0.52 0.17
9 34 0.54 0.26
9 35 0.39 0.2
9 36 0.37 0.18
9 37 0.5 0.06
9 38 0.63 0.08
9 39 0.59 0.19
9 40 0.74 0.14
9 41 0.66 0.18
9 42 0.59 0.2
9 43 0.42 0.12
9 44 0.56 0.27
9 45 0.36 0.23
9 46 0.64 0.24
9 47 0.64 0.22
9 48 0.43 0.11
9 49 0.36 0.2
10 11 0.6 0.31
10 12 0.36 0.18
10 13 0.57 0.27
10 14 0.59 0.25
10 15 0.53 0.22
10 16 0.38 0.25
10 17 0.6 0.27
10 18 0.79 0.28
10 19 0.38 0.12
10 20 0.63 0.28
10 21 0.48 0.3
10 22 0.54 0.18
10 23 0.75 0.28
10 24 0.24 0.22
10 25 0.62 0.24
10 26 0.7 0.26
10 27 0.47 0.2
10 28 0.59 0.24
10 29 0.5 0.28
10 30 0.29 0.26
10 31 0.4 0.2
10 32 0.47 0.26
10 33 0.55 0.15
10 34 0.6 0.14
10 35 0.66 0.23
10 36 0.48 0.2
10 37 0.57 0.18
10 38 0.58 0.2
10 39 0.52 0.21
10 40 0.58 0.2
10 41 0.67 0.24
10 42 0.44 0.22
10 43 0.6 0.23
10 44 0.56 0.25
10 45 0.23 0.2
10 46 0.72 0.24
10 47 0.48 0.26
10 48 0.49 0.23
10 49 0.54 0.25
11 12 0.68 0.25
11 13 0.62 0.26
11 14 0.56 0.28
11 15 0.72 0.29
11 16 0.62 0.12
11 17 0.41 0.29
11 18 0.78 0.28
11 19 0.74 0.19
11 20 0.8 0.34
11 21 0.68 0.21
11 22 0.48 0.33
11 23 0.46 0.33
11 24 0.48 0.15
11 25 0.55 0.26
11 26 0.38 0.16
11 27 0.54 0.25
11 28 0.56 0.13
11 29 0.78 0.24
11 30 0.81 0.31
11 31 0.69 0.3
11 32 0.68 0.25
11 33 0.66 0.32
11 34 0.32 0.32
11 35 0.6 0.15
11 36 0.24 0.22
11 37 0.66 0.22
11 38 0.64 0.2
11 39 0.64 0.27
11 40 0.66 0.25
11 41 0.48 0.21
11 42 0.48 0.23
11 43 0.66 0.29
11 44 0.5 0.32
11 45 0.77 0.19
11 46 0.49 0.2
11 47 0.68 0.17
11 48 0.6 0.22
11 49 0.58 0.26
12 13 0.68 0.25
12 14 0.44 0.14
12 15 0.3 0.04
12 16 0.62 0.15
12 17 0.52 0.26
12 18 0.64 0.26
12 19 0.45 0.16
12 20 0.54 0.23
12 21 0.65 0.18
12 22 0.56 0.19
12 23 0.48 0.25
12 24 0.56 0.14
12 25 0.56 0.26
12 26 0.56 0.22
12 27 0.63 0.24
12 28 0.38 0.12
12 29 0.29 0.19
12 30 0.65 0.23
12 31 0.63 0.3
12 32 0.6 0.24
12 33 0.66 0.18
12 34 0.36 0.25
12 35 0.56 0.14
12 36 0.55 0.14
12 37 0.59 0.21
12 38 0.58 0.22
12 39 0.52 0.2
12 40 0.72 0.13
12 41 0.54 0.14
12 42 0.79 0.15
12 43 0.62 0.26
12 44 0.54 0.24
12 45 0.48 0.18
12 46 0.7 0.18
12 47 0.12 0.08
12 48 0.59 0.21
12 49 0.53 0.25
13 14 0.76 0.2
13 15 0.55 0.24
13 16 0.43 0.21
13 17 0.64 0.23
13 18 0.41 0.14
13 19 0.49 0.24
13 20 0.18 0.12
13 21 0.54 0.12
13 22 0.6 0.16
13 23 0.48 0.23
13 24 0.52 0.15
13 25 0.61 0.26
13 26 0.71 0.26
13 27 0.62 0.22
13 28 0.4 0.13
13 29 0.5 0.08
13 30 0.63 0.21
13 31 0.66 0.08
13 32 0.29 0.13
13 33 0.42 0.27
13 34 0.38 0.16
13 35 0.55 0.15
13 36 0.38 0.12
13 37 0.66 0.22
13 38 0.64 0.22
13 39 0.53 0.22
13 40 0.59 0.26
13 41 0.5 0.24
13 42 0.62 0.21
13 43 0.64 0.28
13 44 0.56 0.26
13 45 0.38 0.07
13 46 0.53 0.22
13 47 0.64 0.17
13 48 0.62 0.21
13 49 0.43 0.21
14 15 0.34 0.1
14 16 0.46 0.26
14 17 0.4 0.27
14 18 0.62 0.28
14 19 0.5 0.25
14 20 0.58 0.24
14 21 0.69 0.24
14 22 0.54 0.31
14 23 0.63 0.18
14 24 0.76 0.13
14 25 0.37 0.26
14 26 0.48 0.16
14 27 0.43 0.23
14 28 0.6 0.15
14 29 0.63 0.19
14 30 0.69 0.24
14 31 0.68 0.19
14 32 0.62 0.19
14 33 0.7 0.22
14 34 0.48 0.11
14 35 0.7 0.17
14 36 0.67 0.24
14 37 0.81 0.26
14 38 0.61 0.28
14 39 0.38 0.22
14 40 0.52 0.19
14 41 0.48 0.23
14 42 0.72 0.19
14 43 0.68 0.27
14 44 0.52 0.2
14 45 0.38 0.13
14 46 0.72 0.2
14 47 0.56 0.19
14 48 0.75 0.24
14 49 0.68 0.12
15 16 0.64 0.19
15 17 0.74 0.25
15 18 0.7 0.22
15 19 0.66 0.2
15 20 0.62 0.19
15 21 0.58 0.14
15 22 0.38 0.23
15 23 0.68 0.23
15 24 0.71 0.18
15 25 0.71 0.23
15 26 0.48 0.18
15 27 0.71 0.26
15 28 0.6 0.16
15 29 0.59 0.23
15 30 0.42 0.19
15 31 0.67 0.27
15 32 0.78 0.23
15 33 0.36 0.14
15 34 0.48 0.21
15 35 0.64 0.18
15 36 0.64 0.18
15 37 0.62 0.17
15 38 0.62 0.26
15 39 0.58 0.16
15 40 0.7 0.09
15 41 0.59 0.13
15 42 0.66 0.11
15 43 0.73 0.3
15 44 0.48 0.2
15 45 0.66 0.17
15 46 0.52 0.14
15 47 0.42 0.12
15 48 0.68 0.23
15 49 0.52 0.22
16 17 0.52 0.2
16 18 0.58 0.18
16 19 0.53 0.31
16 20 0.5 0.31
16 21 0.68 0.09
16 22 0.74 0.27
16 23 0.66 0.24
16 24 0.47 0.13
16 25 0.66 0.25
16 26 0.69 0.27
16 27 0.46 0.21
16 28 0.52 0.11
16 29 0.46 0.22
16 30 0.58 0.29
16 31 0.5 0.29
16 32 0.69 0.23
16 33 0.49 0.2
16 34 0.64 0.25
16 35 0.44 0.13
16 36 0.38 0.24
16 37 0.46 0.23
16 38 0.92 0.21
16 39 0.84 0.26
16 40 0.58 0.22
16 41 0.76 0.26
16 42 0.62 0.21
16 43 0.4 0.27
16 44 0.46 0.27
16 45 0.61 0.17
16 46 0.64 0.23
16 47 0.5 0.07
16 48 0.58 0.18
16 49 0.36 0.24
17 18 0.58 0.2
17 19 0.71 0.28
17 20 0.66 0.16
17 21 0.5 0.11
17 22 0.44 0.29
17 23 0.4 0.25
17 24 0.36 0.14
17 25 0.66 0.21
17 26 0.42 0.24
17 27 0.42 0.22
17 28 0.66 0.16
17 29 0.67 0.23
17 30 0.58 0.16
17 31 0.28 0.23
17 32 0.62 0.19
17 33 0.74 0.12
17 34 0.43 0.16
17 35 0.76 0.18
17 36 0.6 0.25
17 37 0.58 0.2
17 38 0.62 0.1
17 39 0.38 0.18
17 40 0.48 0.28
17 41 0.58 0.32
17 42 0.78 0.21
17 43 0.62 0.28
17 44 0.42 0.22
17 45 0.46 0.22
17 46 0.36 0.25
17 47 0.4 0.18
17 48 0.6 0.2
17 49 0.64 0.22
18 19 0.8 0.2
18 20 0.42 0.2
18 21 0.46 0.09
18 22 0.52 0.3
18 23 0.46 0.24
18 24 0.65 0.19
18 25 0.69 0.17
18 26 0.78 0.12
18 27 0.56 0.21
18 28 0.7 0.17
18 29 0.48 0.22
18 30 0.5 0.3
18 31 0.75 0.22
18 32 0.48 0.27
18 33 0.48 0.26
18 34 0.46 0.25
18 35 0.5 0.15
18 36 0.58 0.26
18 37 0.72 0.22
18 38 0.71 0.24
18 39 0.47 0.23
18 40 0.66 0.3
18 41 0.68 0.34
18 42 0.62 0.27
18 43 0.59 0.2
18 44 0.64 0.27
18 45 0.68 0.21
18 46 0.67 0.08
18 47 0.76 0.21
18 48 0.68 0.18
18 49 0.38 0.26
19 20 0.67 0.16
19 21 0.56 0.26
19 22 0.28 0.19
19 23 0.39 0.16
19 24 0.62 0.18
19 25 0.38 0.14
19 26 0.36 0.14
19 27 0.54 0.24
19 28 0.71 0.2
19 29 0.58 0.16
19 30 0.33 0.23
19 31 0.62 0.22
19 32 0.5 0.15
19 33 0.66 0.23
19 34 0.48 0.14
19 35 0.38 0.19
19 36 0.54 0.23
19 37 0.48 0.11
19 38 0.44 0.21
19 39 0.4 0.1
19 40 0.54 0.19
19 41 0.49 0.23
19 42 0.36 0.15
19 43 0.58 0.19
19 44 0.3 0.13
19 45 0.56 0.21
19 46 0.54 0.12
19 47 0.57 0.24
19 48 0.7 0.21
19 49 0.5 0.25
20 21 0.72 0.22
20 22 0.6 0.22
20 23 0.66 0.21
20 24 0.58 0.22
20 25 0.66 0.3
20 26 0.53 0.26
20 27 0.54 0.1
20 28 0.56 0.21
20 29 0.32 0.14
20 30 0.72 0.25
20 31 0.54 0.2
20 32 0.19 0.09
20 33 0.55 0.22
20 34 0.54 0.28
20 35 0.51 0.22
20 36 0.56 0.24
20 37 0.56 0.23
20 38 0.5 0.18
20 39 0.43 0.21
20 40 0.7 0.28
20 41 0.67 0.32
20 42 0.8 0.26
20 43 0.6 0.28
20 44 0.54 0.18
20 45 0.4 0.15
20 46 0.5 0.28
20 47 0.66 0.25
20 48 0.63 0.13
20 49 0.39 0.12
21 22 0.67 0.28
21 23 0.46 0.15
21 24 0.24 0.2
21 25 0.56 0.26
21 26 0.56 0.18
21 27 0.26 0.12
21 28 0.7 0.18
21 29 0.63 0.2
21 30 0.76 0.21
21 31 0.68 0.2
21 32 0.66 0.25
21 33 0.67 0.23
21 34 0.36 0.16
21 35 0.63 0.2
21 36 0.48 0.24
21 37 0.68 0.19
21 38 0.7 0.21
21 39 0.7 0.29
21 40 0.64 0.23
21 41 0.46 0.27
21 42 0.72 0.25
21 43 0.52 0.29
21 44 0.54 0.18
21 45 0.48 0.19
21 46 0.36 0.14
21 47 0.56 0.16
21 48 0.66 0.09
21 49 0.51 0.31
22 23 0.65 0.23
22 24 0.6 0.21
22 25 0.66 0.26
22 26 0.64 0.28
22 27 0.56 0.28
22 28 0.51 0.2
22 29 0.46 0.12
22 30 0.61 0.29
22 31 0.58 0.22
22 32 0.56 0.26
22 33 0.67 0.17
22 34 0.48 0.3
22 35 0.62 0.18
22 36 0.68 0.28
22 37 0.68 0.22
22 38 0.56 0.24
22 39 0.32 0.27
22 40 0.39 0.16
22 41 0.21 0.12
22 42 0.64 0.24
22 43 0.62 0.14
22 44 0.56 0.26
22 45 0.54 0.23
22 46 0.6 0.31
22 47 0.68 0.24
22 48 0.62 0.29
22 49 0.7 0.25
23 24 0.64 0.22
23 25 0.61 0.22
23 26 0.59 0.27
23 27 0.5 0.22
23 28 0.58 0.22
23 29 0.61 0.15
23 30 0.66 0.2
23 31 0.48 0.23
23 32 0.58 0.28
23 33 0.76 0.13
23 34 0.38 0.15
23 35 0.62 0.21
23 36 0.68 0.11
23 37 0.48 0.23
23 38 0.3 0.26
23 39 0.54 0.26
23 40 0.6 0.3
23 41 0.74 0.28
23 42 0.46 0.22
23 43 0.66 0.32
23 44 0.2 0.03
23 45 0.64 0.22
23 46 0.66 0.28
23 47 0.36 0.26
23 48 0.7 0.19
23 49 0.74 0.23
24 25 0.5 0.16
24 26 0.7 0.25
24 27 0.5 0.12
24 28 0.58 0.02
24 29 0.39 0.09
24 30 0.53 0.2
24 31 0.64 0.23
24 32 0.71 0.14
24 33 0.47 0.21
24 34 0.46 0.24
24 35 0.6 0.04
24 36 0.24 0.11
24 37 0.8 0.21
24 38 0.7 0.2
24 39 0.74 0.15
24 40 0.5 0.24
24 41 0.68 0.22
24 42 0.48 0.12
24 43 0.66 0.14
24 44 0.64 0.22
24 45 0.47 0.08
24 46 0.53 0.27
24 47 0.44 0.06
24 48 0.73 0.11
24 49 0.52 0.15
25 26 0.24 0.1
25 27 0.65 0.25
25 28 0.41 0.14
25 29 0.54 0.25
25 30 0.63 0.23
25 31 0.53 0.26
25 32 0.47 0.24
25 33 0.7 0.09
25 34 0.23 0.22
25 35 0.49 0.12
25 36 0.44 0.14
25 37 0.57 0.25
25 38 0.58 0.23
25 39 0.54 0.12
25 40 0.54 0.26
25 41 0.59 0.3
25 42 0.58 0.17
25 43 0.64 0.25
25 44 0.41 0.19
25 45 0.54 0.2
25 46 0.48 0.14
25 47 0.44 0.18
25 48 0.55 0.23
25 49 0.61 0.19
26 27 0.54 0.29
26 28 0.5 0.23
26 29 0.61 0.2
26 30 0.45 0.24
26 31 0.56 0.24
26 32 0.54 0.23
26 33 0.5 0.19
26 34 0.47 0.27
26 35 0.47 0.22
26 36 0.46 0.16
26 37 0.68 0.24
26 38 0.44 0.14
26 39 0.6 0.11
26 40 0.3 0.26
26 41 0.48 0.3
26 42 0.58 0.16
26 43 0.4 0.27
26 44 0.65 0.27
26 45 0.72 0.27
26 46 0.24 0.04
26 47 0.68 0.27
26 48 0.75 0.27
26 49 0.59 0.28
27 28 0.59 0.12
27 29 0.49 0.21
27 30 0.55 0.15
27 31 0.7 0.28
27 32 0.57 0.19
27 33 0.41 0.16
27 34 0.62 0.2
27 35 0.37 0.14
27 36 0.39 0.23
27 37 0.61 0.13
27 38 0.72 0.16
27 39 0.48 0.26
27 40 0.73 0.21
27 41 0.55 0.25
27 42 0.63 0.21
27 43 0.46 0.2
27 44 0.67 0.19
27 45 0.47 0.18
27 46 0.58 0.26
27 47 0.66 0.16
27 48 0.54 0.03
27 49 0.25 0.22
28 29 0.52 0.11
28 30 0.46 0.18
28 31 0.62 0.21
28 32 0.38 0.12
28 33 0.36 0.19
28 34 0.64 0.22
28 35 0.35 0.02
28 36 0.72 0.13
28 37 0.61 0.19
28 38 0.65 0.18
28 39 0.41 0.15
28 40 0.48 0.22
28 41 0.3 0.2
28 42 0.48 0.1
28 43 0.62 0.16
28 44 0.62 0.2
28 45 0.62 0.06
28 46 0.68 0.25
28 47 0.26 0.04
28 48 0.71 0.09
28 49 0.47 0.13
29 30 0.56 0.29
29 31 0.6 0.16
29 32 0.51 0.21
29 33 0.4 0.23
29 34 0.48 0.24
29 35 0.36 0.13
29 36 0.54 0.2
29 37 0.42 0.14
29 38 0.53 0.2
29 39 0.57 0.24
29 40 0.64 0.22
29 41 0.67 0.24
29 42 0.66 0.21
29 43 0.45 0.22
29 44 0.56 0.18
29 45 0.68 0.15
29 46 0.62 0.24
29 47 0.41 0.15
29 48 0.54 0.2
29 49 0.24 0.13
30 31 0.45 0.16
30 32 0.76 0.25
30 33 0.63 0.17
30 34 0.68 0.14
30 35 0.48 0.2
30 36 0.57 0.09
30 37 0.81 0.21
30 38 0.36 0.24
30 39 0.6 0.13
30 40 0.46 0.2
30 41 0.64 0.24
30 42 0.69 0.08
30 43 0.68 0.16
30 44 0.56 0.2
30 45 0.52 0.24
30 46 0.69 0.28
30 47 0.54 0.22
30 48 0.59 0.12
30 49 0.47 0.25
31 32 0.56 0.21
31 33 0.57 0.19
31 34 0.43 0.08
31 35 0.6 0.23
31 36 0.61 0.2
31 37 0.54 0.26
31 38 0.45 0.25
31 39 0.56 0.14
31 40 0.5 0.18
31 41 0.68 0.16
31 42 0.5 0.19
31 43 0.54 0.27
31 44 0.54 0.2
31 45 0.38 0.15
31 46 0.32 0.21
31 47 0.51 0.24
31 48 0.75 0.25
31 49 0.72 0.26
32 33 0.68 0.26
32 34 0.67 0.22
32 35 0.4 0.14
32 36 0.56 0.25
32 37 0.45 0.19
32 38 0.48 0.09
32 39 0.24 0.12
32 40 0.62 0.27
32 41 0.48 0.26
32 42 0.65 0.17
32 43 0.5 0.23
32 44 0.61 0.25
32 45 0.24 0.06
32 46 0.36 0.27
32 47 0.59 0.16
32 48 0.44 0.16
32 49 0.52 0.21
33 34 0.78 0.22
33 35 0.28 0.21
33 36 0.54 0.23
33 37 0.62 0.23
33 38 0.5 0.22
33 39 0.69 0.14
33 40 0.41 0.17
33 41 0.59 0.21
33 42 0.3 0.09
33 43 0.37 0.22
33 44 0.64 0.1
33 45 0.54 0.25
33 46 0.63 0.23
33 47 0.62 0.23
33 48 0.46 0.19
33 49 0.16 0.1
34 35 0.6 0.24
34 36 0.56 0.23
34 37 0.62 0.25
34 38 0.35 0.22
34 39 0.54 0.22
34 40 0.54 0.26
34 41 0.36 0.24
34 42 0.52 0.22
34 43 0.62 0.22
34 44 0.18 0.12
34 45 0.62 0.16
34 46 0.64 0.26
34 47 0.48 0.26
34 48 0.32 0.17
34 49 0.62 0.23
35 36 0.52 0.15
35 37 0.65 0.21
35 38 0.68 0.2
35 39 0.46 0.17
35 40 0.69 0.24
35 41 0.65 0.22
35 42 0.52 0.12
35 43 0.33 0.18
35 44 0.68 0.18
35 45 0.59 0.08
35 46 0.59 0.23
35 47 0.55 0.06
35 48 0.42 0.11
35 49 0.12 0.11
36 37 0.56 0.12
36 38 0.76 0.22
36 39 0.54 0.21
36 40 0.51 0.2
36 41 0.69 0.24
36 42 0.24 0.16
36 43 0.42 0.25
36 44 0.5 0.14
36 45 0.68 0.19
36 46 0.29 0.2
36 47 0.67 0.17
36 48 0.7 0.21
36 49 0.4 0.16
37 38 0.78 0.1
37 39 0.59 0.21
37 40 0.38 0.08
37 41 0.52 0.12
37 42 0.46 0.2
37 43 0.74 0.18
37 44 0.6 0.24
37 45 0.58 0.25
37 46 0.81 0.23
37 47 0.71 0.16
37 48 0.43 0.1
37 49 0.53 0.14
38 39 0.24 0.11
38 40 0.44 0.18
38 41 0.54 0.22
38 42 0.52 0.16
38 43 0.77 0.2
38 44 0.5 0.29
38 45 0.46 0.15
38 46 0.68 0.18
38 47 0.66 0.14
38 48 0.58 0.19
38 49 0.56 0.24
39 40 0.6 0.17
39 41 0.53 0.2
39 42 0.44 0.05
39 43 0.58 0.17
39 44 0.5 0.23
39 45 0.48 0.16
39 46 0.52 0.15
39 47 0.54 0.19
39 48 0.68 0.23
39 49 0.53 0.24
40 41 0.18 0.04
40 42 0.71 0.12
40 43 0.7 0.26
40 44 0.4 0.27
40 45 0.76 0.26
40 46 0.54 0.23
40 47 0.74 0.21
40 48 0.73 0.18
40 49 0.57 0.17
41 42 0.7 0.16
41 43 0.71 0.26
41 44 0.54 0.31
41 45 0.59 0.26
41 46 0.72 0.27
41 47 0.56 0.22
41 48 0.62 0.22
41 49 0.56 0.21
42 43 0.59 0.22
42 44 0.39 0.19
42 45 0.67 0.16
42 46 0.5 0.2
42 47 0.7 0.14
42 48 0.56 0.18
42 49 0.42 0.19
43 44 0.74 0.29
43 45 0.48 0.21
43 46 0.64 0.28
43 47 0.66 0.2
43 48 0.51 0.23
43 49 0.21 0.16
44 45 0.79 0.19
44 46 0.46 0.25
44 47 0.56 0.24
44 48 0.5 0.16
44 49 0.72 0.2
45 46 0.6 0.29
45 47 0.6 0.1
45 48 0.62 0.15
45 49 0.66 0.19
46 47 0.65 0.26
46 48 0.77 0.23
46 49 0.47 0.32
47 48 0.71 0.13
47 49 0.54 0.17
48 49 0.3 0.22
